60
1 0 36
2 0 28
2 1 5
3 0 97
3 1 88
3 2 46
4 0 27
4 1 21
4 2 1
4 3 50
5 0 52
5 1 57
5 2 44
5 3 2
5 4 46
6 0 22
6 1 81
6 2 77
6 3 41
6 4 39
6 5 8
7 0 93
7 1 54
7 2 96
7 3 3
7 4 44
7 5 72
7 6 14
8 0 97
8 1 99
8 2 39
8 3 81
8 4 80
8 5 82
8 6 42
8 7 6
9 0 94
9 1 56
9 2 4
9 3 99
9 4 90
9 5 68
9 6 31
9 7 81
9 8 46
10 0 40
10 1 54
10 2 73
10 3 60
10 4 2
10 5 72
10 6 38
10 7 94
10 8 6
10 9 93
11 0 57
11 1 3
11 2 72
11 3 24
11 4 57
11 5 90
11 6 45
11 7 56
11 8 52
11 9 72
11 10 70
12 0 36
12 1 36
12 2 41
12 3 12
12 4 45
12 5 46
12 6 64
12 7 85
12 8 10
12 9 96
12 10 43
12 11 57
13 0 6
13 1 32
13 2 41
13 3 45
13 4 54
13 5 77
13 6 42
13 7 29
13 8 2
13 9 50
13 10 98
13 11 38
13 12 44
14 0 88
14 1 82
14 2 91
14 3 32
14 4 6
14 5 52
14 6 88
14 7 60
14 8 62
14 9 89
14 10 1
14 11 48
14 12 25
14 13 77
15 0 100
15 1 43
15 2 60
15 3 27
15 4 6
15 5 15
15 6 73
15 7 58
15 8 67
15 9 22
15 10 80
15 11 2
15 12 1
15 13 67
15 14 7
16 0 92
16 1 45
16 2 66
16 3 14
16 4 38
16 5 2
16 6 11
16 7 8
16 8 11
16 9 84
16 10 96
16 11 7
16 12 91
16 13 85
16 14 23
16 15 33
17 0 47
17 1 40
17 2 30
17 3 76
17 4 45
17 5 40
17 6 92
17 7 49
17 8 20
17 9 27
17 10 91
17 11 19
17 12 43
17 13 82
17 14 61
17 15 92
17 16 76
18 0 63
18 1 40
18 2 83
18 3 98
18 4 89
18 5 9
18 6 3
18 7 35
18 8 50
18 9 75
18 10 36
18 11 39
18 12 95
18 13 38
18 14 96
18 15 95
18 16 44
18 17 56
19 0 85
19 1 42
19 2 100
19 3 90
19 4 91
19 5 51
19 6 72
19 7 94
19 8 96
19 9 90
19 10 44
19 11 79
19 12 86
19 13 64
19 14 27
19 15 72
19 16 76
19 17 20
19 18 98
20 0 51
20 1 2
20 2 44
20 3 10
20 4 21
20 5 42
20 6 1
20 7 17
20 8 54
20 9 52
20 10 88
20 11 62
20 12 31
20 13 54
20 14 98
20 15 8
20 16 42
20 17 90
20 18 28
20 19 28
21 0 27
21 1 43
21 2 64
21 3 62
21 4 84
21 5 85
21 6 35
21 7 21
21 8 61
21 9 96
21 10 19
21 11 100
21 12 12
21 13 77
21 14 35
21 15 15
21 16 85
21 17 38
21 18 65
21 19 88
21 20 69
22 0 50
22 1 80
22 2 37
22 3 33
22 4 70
22 5 75
22 6 58
22 7 2
22 8 95
22 9 26
22 10 90
22 11 86
22 12 4
22 13 27
22 14 5
22 15 45
22 16 86
22 17 75
22 18 72
22 19 47
22 20 60
22 21 10
23 0 82
23 1 60
23 2 47
23 3 20
23 4 29
23 5 92
23 6 50
23 7 74
23 8 80
23 9 60
23 10 33
23 11 48
23 12 3
23 13 44
23 14 28
23 15 50
23 16 5
23 17 86
23 18 97
23 19 55
23 20 15
23 21 9
23 22 33
24 0 18
24 1 25
24 2 79
24 3 79
24 4 17
24 5 41
24 6 42
24 7 90
24 8 47
24 9 39
24 10 95
24 11 77
24 12 68
24 13 21
24 14 81
24 15 5
24 16 73
24 17 99
24 18 17
24 19 36
24 20 39
24 21 69
24 22 96
24 23 24
25 0 61
25 1 53
25 2 13
25 3 26
25 4 3
25 5 9
25 6 17
25 7 79
25 8 96
25 9 50
25 10 89
25 11 38
25 12 79
25 13 11
25 14 81
25 15 1
25 16 61
25 17 62
25 18 90
25 19 57
25 20 45
25 21 59
25 22 40
25 23 23
25 24 47
26 0 68
26 1 91
26 2 69
26 3 5
26 4 16
26 5 7
26 6 42
26 7 48
26 8 53
26 9 44
26 10 37
26 11 74
26 12 21
26 13 56
26 14 79
26 15 82
26 16 72
26 17 7
26 18 10
26 19 9
26 20 80
26 21 53
26 22 96
26 23 7
26 24 30
26 25 30
27 0 4
27 1 54
27 2 95
27 3 54
27 4 6
27 5 61
27 6 21
27 7 32
27 8 14
27 9 48
27 10 82
27 11 26
27 12 48
27 13 87
27 14 87
27 15 26
27 16 1
27 17 33
27 18 31
27 19 32
27 20 49
27 21 94
27 22 41
27 23 34
27 24 7
27 25 21
27 26 51
28 0 49
28 1 51
28 2 99
28 3 2
28 4 56
28 5 44
28 6 79
28 7 60
28 8 41
28 9 32
28 10 100
28 11 93
28 12 28
28 13 12
28 14 58
28 15 57
28 16 69
28 17 80
28 18 40
28 19 61
28 20 29
28 21 100
28 22 40
28 23 43
28 24 60
28 25 74
28 26 96
28 27 52
29 0 82
29 1 98
29 2 41
29 3 23
29 4 98
29 5 12
29 6 52
29 7 5
29 8 4
29 9 7
29 10 21
29 11 52
29 12 93
29 13 40
29 14 12
29 15 14
29 16 47
29 17 56
29 18 53
29 19 70
29 20 65
29 21 36
29 22 89
29 23 97
29 24 87
29 25 10
29 26 98
29 27 72
29 28 96
30 0 99
30 1 30
30 2 36
30 3 11
30 4 97
30 5 43
30 6 79
30 7 10
30 8 80
30 9 25
30 10 26
30 11 44
30 12 18
30 13 43
30 14 29
30 15 19
30 16 27
30 17 47
30 18 92
30 19 78
30 20 78
30 21 23
30 22 82
30 23 91
30 24 69
30 25 77
30 26 21
30 27 43
30 28 99
30 29 88
31 0 41
31 1 85
31 2 18
31 3 63
31 4 55
31 5 73
31 6 53
31 7 90
31 8 80
31 9 17
31 10 6
31 11 59
31 12 3
31 13 22
31 14 85
31 15 5
31 16 98
31 17 84
31 18 34
31 19 98
31 20 11
31 21 71
31 22 45
31 23 67
31 24 77
31 25 15
31 26 75
31 27 53
31 28 54
31 29 82
31 30 14
32 0 12
32 1 65
32 2 97
32 3 68
32 4 25
32 5 88
32 6 51
32 7 46
32 8 78
32 9 54
32 10 10
32 11 76
32 12 17
32 13 15
32 14 1
32 15 90
32 16 10
32 17 6
32 18 47
32 19 40
32 20 41
32 21 19
32 22 77
32 23 43
32 24 37
32 25 52
32 26 39
32 27 81
32 28 8
32 29 6
32 30 79
32 31 72
33 0 36
33 1 43
33 2 68
33 3 15
33 4 50
33 5 23
33 6 100
33 7 70
33 8 73
33 9 89
33 10 85
33 11 10
33 12 30
33 13 74
33 14 2
33 15 84
33 16 45
33 17 29
33 18 8
33 19 48
33 20 78
33 21 16
33 22 91
33 23 75
33 24 74
33 25 4
33 26 37
33 27 42
33 28 17
33 29 62
33 30 37
33 31 52
33 32 23
34 0 53
34 1 45
34 2 50
34 3 15
34 4 46
34 5 90
34 6 30
34 7 55
34 8 18
34 9 78
34 10 44
34 11 29
34 12 11
34 13 44
34 14 70
34 15 15
34 16 67
34 17 42
34 18 82
34 19 75
34 20 50
34 21 90
34 22 45
34 23 55
34 24 26
34 25 95
34 26 27
34 27 82
34 28 75
34 29 24
34 30 82
34 31 83
34 32 38
34 33 18
35 0 75
35 1 85
35 2 38
35 3 41
35 4 29
35 5 56
35 6 15
35 7 11
35 8 27
35 9 94
35 10 73
35 11 82
35 12 100
35 13 90
35 14 30
35 15 45
35 16 71
35 17 2
35 18 3
35 19 75
35 20 53
35 21 27
35 22 98
35 23 52
35 24 11
35 25 69
35 26 57
35 27 20
35 28 35
35 29 7
35 30 99
35 31 72
35 32 95
35 33 48
35 34 56
36 0 68
36 1 60
36 2 99
36 3 85
36 4 28
36 5 7
36 6 89
36 7 11
36 8 53
36 9 64
36 10 44
36 11 30
36 12 72
36 13 45
36 14 77
36 15 84
36 16 12
36 17 83
36 18 53
36 19 70
36 20 45
36 21 64
36 22 50
36 23 69
36 24 53
36 25 15
36 26 11
36 27 83
36 28 16
36 29 12
36 30 60
36 31 32
36 32 22
36 33 98
36 34 45
36 35 51
37 0 39
37 1 26
37 2 5
37 3 67
37 4 13
37 5 79
37 6 95
37 7 74
37 8 75
37 9 22
37 10 4
37 11 17
37 12 69
37 13 96
37 14 48
37 15 62
37 16 42
37 17 45
37 18 46
37 19 10
37 20 41
37 21 48
37 22 74
37 23 76
37 24 34
37 25 9
37 26 84
37 27 58
37 28 29
37 29 86
37 30 26
37 31 48
37 32 59
37 33 6
37 34 1
37 35 71
37 36 77
38 0 80
38 1 45
38 2 51
38 3 49
38 4 1
38 5 14
38 6 37
38 7 64
38 8 18
38 9 25
38 10 49
38 11 88
38 12 89
38 13 64
38 14 12
38 15 33
38 16 79
38 17 83
38 18 95
38 19 16
38 20 47
38 21 31
38 22 81
38 23 28
38 24 31
38 25 93
38 26 15
38 27 49
38 28 44
38 29 42
38 30 28
38 31 63
38 32 13
38 33 22
38 34 25
38 35 70
38 36 51
38 37 8
39 0 74
39 1 97
39 2 32
39 3 29
39 4 51
39 5 46
39 6 1
39 7 38
39 8 25
39 9 50
39 10 51
39 11 66
39 12 75
39 13 8
39 14 51
39 15 98
39 16 89
39 17 19
39 18 92
39 19 49
39 20 79
39 21 56
39 22 99
39 23 44
39 24 8
39 25 29
39 26 23
39 27 20
39 28 26
39 29 36
39 30 2
39 31 93
39 32 48
39 33 97
39 34 71
39 35 83
39 36 29
39 37 34
39 38 43
40 0 74
40 1 11
40 2 24
40 3 8
40 4 43
40 5 61
40 6 44
40 7 4
40 8 14
40 9 7
40 10 94
40 11 70
40 12 96
40 13 54
40 14 54
40 15 86
40 16 10
40 17 39
40 18 17
40 19 46
40 20 38
40 21 38
40 22 4
40 23 37
40 24 27
40 25 60
40 26 61
40 27 3
40 28 29
40 29 70
40 30 67
40 31 29
40 32 84
40 33 37
40 34 39
40 35 77
40 36 56
40 37 99
40 38 93
40 39 36
41 0 77
41 1 81
41 2 88
41 3 99
41 4 72
41 5 24
41 6 86
41 7 62
41 8 74
41 9 94
41 10 89
41 11 99
41 12 26
41 13 92
41 14 39
41 15 80
41 16 56
41 17 78
41 18 91
41 19 26
41 20 62
41 21 81
41 22 99
41 23 11
41 24 33
41 25 59
41 26 74
41 27 61
41 28 18
41 29 27
41 30 98
41 31 14
41 32 92
41 33 77
41 34 11
41 35 40
41 36 95
41 37 40
41 38 3
41 39 23
41 40 39
42 0 88
42 1 75
42 2 70
42 3 20
42 4 55
42 5 47
42 6 90
42 7 59
42 8 33
42 9 42
42 10 59
42 11 78
42 12 78
42 13 64
42 14 72
42 15 74
42 16 18
42 17 40
42 18 31
42 19 48
42 20 67
42 21 12
42 22 35
42 23 20
42 24 63
42 25 92
42 26 65
42 27 97
42 28 7
42 29 5
42 30 89
42 31 20
42 32 61
42 33 4
42 34 10
42 35 82
42 36 23
42 37 16
42 38 47
42 39 85
42 40 6
42 41 55
43 0 29
43 1 11
43 2 76
43 3 13
43 4 18
43 5 93
43 6 29
43 7 24
43 8 18
43 9 16
43 10 9
43 11 48
43 12 13
43 13 8
43 14 6
43 15 20
43 16 55
43 17 74
43 18 75
43 19 80
43 20 97
43 21 84
43 22 75
43 23 53
43 24 24
43 25 47
43 26 9
43 27 64
43 28 49
43 29 94
43 30 21
43 31 1
43 32 64
43 33 76
43 34 84
43 35 59
43 36 65
43 37 47
43 38 71
43 39 27
43 40 97
43 41 79
43 42 11
44 0 10
44 1 73
44 2 40
44 3 58
44 4 86
44 5 85
44 6 18
44 7 31
44 8 50
44 9 92
44 10 90
44 11 100
44 12 84
44 13 60
44 14 58
44 15 35
44 16 70
44 17 96
44 18 99
44 19 33
44 20 24
44 21 84
44 22 4
44 23 88
44 24 13
44 25 34
44 26 7
44 27 79
44 28 6
44 29 85
44 30 27
44 31 83
44 32 39
44 33 41
44 34 69
44 35 52
44 36 21
44 37 16
44 38 62
44 39 86
44 40 4
44 41 15
44 42 28
44 43 6
45 0 85
45 1 99
45 2 9
45 3 22
45 4 21
45 5 85
45 6 7
45 7 23
45 8 76
45 9 92
45 10 90
45 11 51
45 12 31
45 13 36
45 14 95
45 15 32
45 16 14
45 17 27
45 18 18
45 19 80
45 20 52
45 21 32
45 22 64
45 23 87
45 24 34
45 25 87
45 26 23
45 27 72
45 28 45
45 29 99
45 30 64
45 31 57
45 32 9
45 33 50
45 34 85
45 35 81
45 36 50
45 37 100
45 38 56
45 39 82
45 40 64
45 41 61
45 42 29
45 43 93
45 44 47
46 0 69
46 1 29
46 2 49
46 3 43
46 4 91
46 5 23
46 6 93
46 7 85
46 8 44
46 9 46
46 10 22
46 11 62
46 12 7
46 13 34
46 14 27
46 15 27
46 16 52
46 17 76
46 18 96
46 19 18
46 20 33
46 21 2
46 22 5
46 23 78
46 24 99
46 25 61
46 26 9
46 27 85
46 28 29
46 29 59
46 30 93
46 31 21
46 32 4
46 33 59
46 34 73
46 35 58
46 36 52
46 37 64
46 38 36
46 39 28
46 40 47
46 41 30
46 42 65
46 43 100
46 44 41
46 45 95
47 0 87
47 1 98
47 2 57
47 3 99
47 4 40
47 5 22
47 6 79
47 7 49
47 8 57
47 9 55
47 10 11
47 11 50
47 12 95
47 13 69
47 14 88
47 15 97
47 16 69
47 17 73
47 18 78
47 19 12
47 20 65
47 21 48
47 22 90
47 23 56
47 24 44
47 25 74
47 26 73
47 27 70
47 28 66
47 29 49
47 30 3
47 31 6
47 32 79
47 33 39
47 34 52
47 35 61
47 36 68
47 37 19
47 38 13
47 39 27
47 40 61
47 41 96
47 42 20
47 43 8
47 44 19
47 45 22
47 46 73
48 0 88
48 1 76
48 2 29
48 3 84
48 4 30
48 5 95
48 6 56
48 7 74
48 8 48
48 9 56
48 10 50
48 11 9
48 12 91
48 13 4
48 14 53
48 15 48
48 16 11
48 17 8
48 18 3
48 19 30
48 20 28
48 21 13
48 22 35
48 23 49
48 24 91
48 25 95
48 26 30
48 27 62
48 28 15
48 29 36
48 30 63
48 31 56
48 32 37
48 33 95
48 34 58
48 35 59
48 36 11
48 37 33
48 38 27
48 39 58
48 40 63
48 41 9
48 42 67
48 43 84
48 44 38
48 45 81
48 46 39
48 47 61
49 0 40
49 1 51
49 2 62
49 3 25
49 4 41
49 5 53
49 6 67
49 7 76
49 8 92
49 9 79
49 10 31
49 11 9
49 12 89
49 13 66
49 14 64
49 15 33
49 16 54
49 17 20
49 18 15
49 19 80
49 20 51
49 21 36
49 22 45
49 23 69
49 24 36
49 25 30
49 26 52
49 27 65
49 28 11
49 29 10
49 30 64
49 31 48
49 32 44
49 33 45
49 34 38
49 35 2
49 36 58
49 37 100
49 38 23
49 39 56
49 40 13
49 41 68
49 42 67
49 43 67
49 44 23
49 45 88
49 46 95
49 47 17
49 48 96
50 0 53
50 1 80
50 2 50
50 3 82
50 4 44
50 5 76
50 6 97
50 7 59
50 8 24
50 9 95
50 10 39
50 11 8
50 12 9
50 13 45
50 14 28
50 15 42
50 16 78
50 17 54
50 18 49
50 19 98
50 20 92
50 21 61
50 22 6
50 23 14
50 24 40
50 25 36
50 26 58
50 27 30
50 28 30
50 29 62
50 30 28
50 31 2
50 32 94
50 33 99
50 34 92
50 35 14
50 36 66
50 37 6
50 38 88
50 39 21
50 40 65
50 41 89
50 42 15
50 43 67
50 44 88
50 45 9
50 46 19
50 47 57
50 48 83
50 49 66
51 0 70
51 1 74
51 2 83
51 3 30
51 4 98
51 5 70
51 6 89
51 7 7
51 8 18
51 9 82
51 10 58
51 11 46
51 12 83
51 13 41
51 14 28
51 15 26
51 16 35
51 17 78
51 18 73
51 19 82
51 20 32
51 21 45
51 22 89
51 23 65
51 24 5
51 25 4
51 26 40
51 27 30
51 28 35
51 29 62
51 30 24
51 31 8
51 32 72
51 33 41
51 34 32
51 35 12
51 36 39
51 37 13
51 38 14
51 39 62
51 40 86
51 41 48
51 42 66
51 43 48
51 44 90
51 45 47
51 46 21
51 47 61
51 48 10
51 49 63
51 50 88
52 0 57
52 1 55
52 2 31
52 3 81
52 4 40
52 5 18
52 6 52
52 7 35
52 8 68
52 9 72
52 10 13
52 11 88
52 12 34
52 13 54
52 14 34
52 15 100
52 16 63
52 17 71
52 18 75
52 19 10
52 20 36
52 21 91
52 22 39
52 23 70
52 24 24
52 25 32
52 26 60
52 27 5
52 28 93
52 29 38
52 30 57
52 31 77
52 32 25
52 33 11
52 34 99
52 35 70
52 36 53
52 37 52
52 38 8
52 39 7
52 40 14
52 41 100
52 42 95
52 43 77
52 44 53
52 45 5
52 46 5
52 47 31
52 48 51
52 49 56
52 50 21
52 51 60
53 0 58
53 1 46
53 2 46
53 3 97
53 4 32
53 5 63
53 6 71
53 7 75
53 8 39
53 9 19
53 10 91
53 11 39
53 12 62
53 13 70
53 14 25
53 15 13
53 16 7
53 17 84
53 18 69
53 19 46
53 20 25
53 21 56
53 22 63
53 23 99
53 24 75
53 25 88
53 26 72
53 27 50
53 28 99
53 29 70
53 30 98
53 31 23
53 32 90
53 33 38
53 34 81
53 35 73
53 36 67
53 37 97
53 38 58
53 39 73
53 40 88
53 41 26
53 42 75
53 43 97
53 44 72
53 45 9
53 46 84
53 47 95
53 48 9
53 49 58
53 50 70
53 51 90
53 52 69
54 0 30
54 1 79
54 2 55
54 3 49
54 4 32
54 5 50
54 6 51
54 7 23
54 8 90
54 9 71
54 10 27
54 11 70
54 12 18
54 13 17
54 14 17
54 15 4
54 16 100
54 17 29
54 18 83
54 19 35
54 20 94
54 21 42
54 22 89
54 23 22
54 24 4
54 25 92
54 26 11
54 27 12
54 28 80
54 29 34
54 30 13
54 31 65
54 32 58
54 33 57
54 34 34
54 35 6
54 36 24
54 37 98
54 38 89
54 39 78
54 40 89
54 41 65
54 42 59
54 43 51
54 44 93
54 45 30
54 46 32
54 47 40
54 48 78
54 49 60
54 50 21
54 51 28
54 52 11
54 53 88
55 0 56
55 1 85
55 2 20
55 3 44
55 4 61
55 5 55
55 6 5
55 7 1
55 8 16
55 9 21
55 10 13
55 11 98
55 12 1
55 13 96
55 14 1
55 15 59
55 16 67
55 17 90
55 18 22
55 19 6
55 20 55
55 21 41
55 22 14
55 23 39
55 24 93
55 25 31
55 26 68
55 27 41
55 28 24
55 29 6
55 30 6
55 31 11
55 32 40
55 33 81
55 34 3
55 35 56
55 36 38
55 37 2
55 38 30
55 39 77
55 40 20
55 41 78
55 42 98
55 43 37
55 44 89
55 45 31
55 46 34
55 47 98
55 48 32
55 49 6
55 50 21
55 51 60
55 52 90
55 53 47
55 54 70
56 0 47
56 1 38
56 2 37
56 3 33
56 4 10
56 5 41
56 6 39
56 7 45
56 8 54
56 9 63
56 10 16
56 11 67
56 12 5
56 13 24
56 14 85
56 15 81
56 16 73
56 17 55
56 18 49
56 19 30
56 20 79
56 21 86
56 22 25
56 23 28
56 24 44
56 25 60
56 26 29
56 27 82
56 28 76
56 29 70
56 30 12
56 31 76
56 32 81
56 33 60
56 34 58
56 35 45
56 36 100
56 37 28
56 38 72
56 39 16
56 40 43
56 41 29
56 42 24
56 43 88
56 44 70
56 45 74
56 46 44
56 47 9
56 48 42
56 49 51
56 50 60
56 51 36
56 52 40
56 53 34
56 54 36
56 55 6
57 0 32
57 1 52
57 2 58
57 3 57
57 4 23
57 5 24
57 6 57
57 7 64
57 8 32
57 9 98
57 10 81
57 11 83
57 12 72
57 13 29
57 14 60
57 15 23
57 16 31
57 17 7
57 18 7
57 19 94
57 20 73
57 21 9
57 22 66
57 23 77
57 24 24
57 25 26
57 26 88
57 27 42
57 28 92
57 29 8
57 30 4
57 31 100
57 32 42
57 33 19
57 34 34
57 35 48
57 36 36
57 37 91
57 38 21
57 39 76
57 40 98
57 41 25
57 42 12
57 43 19
57 44 65
57 45 78
57 46 12
57 47 78
57 48 34
57 49 26
57 50 77
57 51 53
57 52 19
57 53 11
57 54 28
57 55 51
57 56 84
58 0 82
58 1 6
58 2 65
58 3 98
58 4 19
58 5 94
58 6 45
58 7 38
58 8 79
58 9 73
58 10 89
58 11 51
58 12 13
58 13 3
58 14 49
58 15 22
58 16 42
58 17 24
58 18 10
58 19 29
58 20 80
58 21 34
58 22 85
58 23 76
58 24 63
58 25 94
58 26 69
58 27 38
58 28 4
58 29 37
58 30 91
58 31 54
58 32 92
58 33 22
58 34 2
58 35 54
58 36 92
58 37 34
58 38 67
58 39 13
58 40 43
58 41 14
58 42 48
58 43 49
58 44 25
58 45 2
58 46 15
58 47 34
58 48 67
58 49 94
58 50 89
58 51 68
58 52 9
58 53 66
58 54 40
58 55 29
58 56 35
58 57 7
59 0 66
59 1 22
59 2 57
59 3 68
59 4 43
59 5 72
59 6 89
59 7 19
59 8 18
59 9 34
59 10 69
59 11 60
59 12 74
59 13 26
59 14 5
59 15 56
59 16 7
59 17 96
59 18 46
59 19 57
59 20 80
59 21 92
59 22 22
59 23 45
59 24 57
59 25 82
59 26 92
59 27 20
59 28 12
59 29 50
59 30 88
59 31 99
59 32 85
59 33 70
59 34 62
59 35 10
59 36 27
59 37 25
59 38 61
59 39 94
59 40 45
59 41 25
59 42 90
59 43 53
59 44 49
59 45 44
59 46 37
59 47 97
59 48 59
59 49 84
59 50 69
59 51 89
59 52 26
59 53 21
59 54 33
59 55 87
59 56 69
59 57 7
59 58 7
